
  32    4
  10   10   10   10

   0   0   0   0   0   3 2 8 21 
   7   1   0   1   1   1 3 
   9   1   1   3   0   1 4 
   2   6   0   3   4   2 12 5 
   4   4   0   5   3   1 6 
   1   4   3   4   0   1 7 
   4   5   3   0   2   2 25 9 
   1   3   0   1   6   2 25 9 
   2   0   8   4   5   1 10 
   2   0   7   4   5   1 11 
   9   6   4   0   7   2 23 13 
   7   6   3   5   0   2 23 13 
   3   8   6   0   4   1 14 
   8   0   1   4   5   1 15 
   9   2   2   0   3   1 16 
   9   5   5   3   0   1 17 
   5   0   7   7   3   1 18 
   3   4   4   0   6   1 19 
  10   5   7   2   0   1 20 
   8   3   5   6   0   1 22 
   8   2   0   6   4   1 22 
   7   0   7   3   4   2 31 24 
   3   6   6   0   4   2 31 24 
   9   0   2   4   2   1 26 
   6   2   5   0   5   1 26 
   3   0   2   5   1   1 27 
   2   3   3   0   5   1 28 
   9   0   2   5   5   1 29 
   6   0   2   4   4   1 30 
   9   4   3   4   0   1 32
   8   0   2   5   4   1 32
   0   0   0   0   0   0 
